50
23078

275 482
317 412
85 790
252 799
559 332
552 286
266 912
262 416
991 872
696 363
64 537
374 738
711 106
570 50
562 414
187 932
142 711
209 60
737 62
889 106
687 852
802 609
798 857
6 704
767 37
426 304
936 378
344 310
607 68
172 730
703 910
947 934
865 274
118 402
464 560
653 818
887 327
646 865
462 731
749 796
964 335
526 235
151 23
208 921
127 597
335 24
425 414
870 83
476 865
565 565
